14
1 7
2 2
3 9
4 1
5 8
6 10
7 7
8 5
9 3
10 3
11 10
12 10
13 6
40
0 1 1
1 0 1
0 2 28
2 0 28
0 3 75
3 0 75
0 4 82
4 0 82
0 5 60
5 0 60
0 6 43
6 0 43
0 7 30
7 0 30
0 8 80
8 0 80
0 9 65
9 0 65
0 10 67
10 0 67
0 11 56
11 0 56
0 12 93
12 0 93
0 13 61
13 0 61
1 2 86
1 5 50
1 6 29
2 3 26
2 7 61
2 8 14
2 12 18
4 12 5
5 7 25
5 8 100
5 10 12
6 13 14
7 10 54
12 13 56
